
Gurobi 11.0.1 (win64) logging started Thu May 16 18:55:06 2024

Set parameter LogFile to value "output/solver_log24.txt"
Gurobi Optimizer version 11.0.1 build v11.0.1rc0 (win64 - Windows 11.0 (22631.2))

CPU model: 11th Gen Intel(R) Core(TM) i7-1165G7 @ 2.80GHz, instruction set [SSE2|AVX|AVX2|AVX512]
Thread count: 4 physical cores, 8 logical processors, using up to 8 threads

Optimize a model with 4717 rows, 1199 columns and 88543 nonzeros
Model fingerprint: 0x86176497
Variable types: 568 continuous, 631 integer (631 binary)
Coefficient statistics:
  Matrix range     [4e-01, 1e+05]
  Objective range  [1e+00, 1e+02]
  Bounds range     [1e+00, 1e+00]
  RHS range        [1e-02, 1e+05]

User MIP start produced solution with objective 40339.7 (0.01s)
User MIP start produced solution with objective 40339.7 (0.01s)
Loaded user MIP start with objective 40339.7

Presolve removed 511 rows and 303 columns
Presolve time: 0.09s
Presolved: 4206 rows, 896 columns, 80370 nonzeros
Variable types: 529 continuous, 367 integer (359 binary)

Root relaxation: objective 5.285234e+04, 1407 iterations, 0.06 seconds (0.11 work units)

    Nodes    |    Current Node    |     Objective Bounds      |     Work
 Expl Unexpl |  Obj  Depth IntInf | Incumbent    BestBd   Gap | It/Node Time

     0     0 52852.3422    0   30 40339.6522 52852.3422  31.0%     -    0s
     0     0 51009.9937    0   56 40339.6522 51009.9937  26.5%     -    0s
     0     0 49320.9590    0   52 40339.6522 49320.9590  22.3%     -    0s
     0     0 49027.8671    0   50 40339.6522 49027.8671  21.5%     -    0s
     0     0 49027.8671    0   50 40339.6522 49027.8671  21.5%     -    0s
     0     0 48918.4854    0   60 40339.6522 48918.4854  21.3%     -    1s
     0     0 48836.9625    0   64 40339.6522 48836.9625  21.1%     -    1s
     0     0 48835.9227    0   65 40339.6522 48835.9227  21.1%     -    1s
     0     0 48483.2259    0   72 40339.6522 48483.2259  20.2%     -    1s
     0     0 48392.4544    0   83 40339.6522 48392.4544  20.0%     -    1s
     0     0 48392.4544    0   89 40339.6522 48392.4544  20.0%     -    1s
     0     0 48392.4544    0   86 40339.6522 48392.4544  20.0%     -    1s
     0     0 48392.4544    0   97 40339.6522 48392.4544  20.0%     -    1s
     0     0 48392.4544    0   97 40339.6522 48392.4544  20.0%     -    2s
     0     0 48392.4544    0  101 40339.6522 48392.4544  20.0%     -    2s
     0     0 48392.4544    0   98 40339.6522 48392.4544  20.0%     -    2s
     0     0 48392.4544    0   98 40339.6522 48392.4544  20.0%     -    2s
     0     0 48366.7393    0   96 40339.6522 48366.7393  19.9%     -    2s
     0     0 48258.9530    0   99 40339.6522 48258.9530  19.6%     -    2s
     0     0 48240.4973    0  110 40339.6522 48240.4973  19.6%     -    3s
     0     0 48240.4973    0   98 40339.6522 48240.4973  19.6%     -    3s
     0     0 48240.4973    0   98 40339.6522 48240.4973  19.6%     -    3s
     0     2 48240.4973    0   98 40339.6522 48240.4973  19.6%     -    3s
    19    22 45601.4476    5   55 40339.6522 47711.0365  18.3%  1079    5s
   258   187 41290.1514   14   32 40339.6522 45827.1133  13.6%   590   10s
H  465   274                    40340.110167 43969.9348  9.00%   610   13s
   554   297 40940.7642   13   38 40340.1102 43855.7727  8.72%   600   15s
   795   355 42591.5894   10   39 40340.1102 43452.8607  7.72%   581   20s
   932   392     cutoff   14      40340.1102 43400.2225  7.59%   585   25s
  1446   497 41413.2782    7   29 40340.1102 43010.5511  6.62%   579   30s
  1985   540     cutoff   13      40340.1102 42552.3014  5.48%   561   36s
  2412   542 40420.0706   16   18 40340.1102 42282.0797  4.81%   549   40s
  2958   614 41808.2700   11   31 40340.1102 42026.2431  4.18%   536   45s
  3235   579     cutoff   14      40340.1102 41882.4957  3.82%   534   51s
  3721   509     cutoff   15      40340.1102 41580.2949  3.07%   532   56s
  4260   409 40667.2770   17   25 40340.1102 41228.6950  2.20%   528   60s

Cutting planes:
  Gomory: 10
  Implied bound: 15
  MIR: 172
  RLT: 31
  Relax-and-lift: 2
  BQP: 10

Explored 4304 nodes (2287576 simplex iterations) in 60.02 seconds (134.23 work units)
Thread count was 8 (of 8 available processors)

Solution count 3: 40340.1 40340.1 40339.7 

Time limit reached
Best objective 4.034011016688e+04, best bound 4.120125298671e+04, gap 2.1347%
